(declare-const Bracket_1 Real)
(declare-const Bracket_2 Real)
(declare-const Bracket_3 Real)
(declare-const Bracket_4 Real)
(declare-const Bracket_5 Real)
(declare-const FinalTaxes Real)
(declare-const Income Real)

(assert (= Bracket_1 (* 0.145 (ite (<= Income 57375) Income 57375))))
(assert (= Bracket_2 (* 0.205 (ite (<= Income 57375) 0 (ite (<= Income 114750) (- Income 57375) (- 114750 57375))))))
(assert (= Bracket_3 (* 0.26 (ite (<= Income 114750) 0 (ite (<= Income 177882) (- Income 114750) (- 177882 114750))))))
(assert (= Bracket_4 (* 0.29 (ite (<= Income 177882) 0 (ite (<= Income 253414) (- Income 177882) (- 253414 177882))))))
(assert (= Bracket_5 (* 0.33 (ite (<= Income 253414) 0 (- Income 253414)))))
(assert (= FinalTaxes (+ Bracket_1 Bracket_2 Bracket_3 Bracket_4 Bracket_5)))
